nK = 3039;
nT = 8;
nI = 21;
L = 35;
TT = 647;
np = 1;
nc = 3;
b = [55, 37, 29, 50, 41, 45, 28, 36, 49, 66, 70, 45, 42, 70, 24, 28, 48, 68, 23, 53, 49];
d = [94, 91, 96, 148, 139, 144, 104, 127, 76, 134, 136, 128, 114, 136, 98, 46, 138, 150, 99, 116, 112];
m = [2.3, 2.3, 2.4, 1.5, 2.2, 1.2, 1.7, 1.1, 1.2, 1, 2.3, 1.5, 1.2, 2.4, 1.4, 1, 1.6, 1.1, 1.5, 2, 1.1];
pt = [0.27, 0.26, 0.22, 0.23, 0.21, 0.26, 0.22, 0.31];
st = [14.85, 14.56, 11.66, 11.5, 8.82, 10.92, 9.9, 15.19];
arc = {<1, 0, 1, 1, 0, 0, 0, [1, 1, 1, 1, 1, 1, 1, 1]>, <2, 1, 2, 1, 0, 0, 0, [1, 1, 1, 1, 1, 1, 1, 1]>, <3, 2, 3, 1, 0, 0, 0, [1, 1, 1, 1, 1, 1, 1, 1]>, <4, 3, 4, 1, 0, 0, 0, [1, 1, 1, 1, 1, 1, 1, 1]>, <5, 4, 5, 1, 0, 0, 0, [1, 1, 1, 1, 1, 1, 1, 1]>, <6, 5, 6, 1, 0, 0, 0, [1, 1, 1, 1, 1, 1, 1, 1]>, <7, 6, 7, 1, 0, 0, 0, [1, 1, 1, 1, 1, 1, 1, 1]>, <8, 7, 8, 1, 0, 0, 0, [1, 1, 1, 1, 1, 1, 1, 1]>, <9, 8, 9, 1, 0, 0, 0, [1, 1, 1, 1, 1, 1, 1, 1]>, <10, 9, 10, 1, 0, 0, 0, [1, 1, 1, 1, 1, 1, 1, 1]>, <11, 10, 11, 1, 0, 0, 0, [1, 1, 1, 1, 1, 1, 1, 1]>, <12, 11, 12, 1, 0, 0, 0, [1, 1, 1, 1, 1, 1, 1, 1]>, <13, 12, 13, 1, 0, 0, 0, [1, 1, 1, 1, 1, 1, 1, 1]>, <14, 13, 14, 1, 0, 0, 0, [1, 1, 1, 1, 1, 1, 1, 1]>, <15, 14, 15, 1, 0, 0, 0, [1, 1, 1, 1, 1, 1, 1, 1]>, <16, 15, 16, 1, 0, 0, 0, [1, 1, 1, 1, 1, 1, 1, 1]>, <17, 16, 17, 1, 0, 0, 0, [1, 1, 1, 1, 1, 1, 1, 1]>, <18, 17, 18, 1, 0, 0, 0, [1, 1, 1, 1, 1, 1, 1, 1]>, <19, 18, 19, 1, 0, 0, 0, [1, 1, 1, 1, 1, 1, 1, 1]>, <20, 19, 20, 1, 0, 0, 0, [1, 1, 1, 1, 1, 1, 1, 1]>, <21, 20, 21, 1, 0, 0, 0, [1, 1, 1, 1, 1, 1, 1, 1]>, <22, 21, 22, 1, 0, 0, 0, [1, 1, 1, 1, 1, 1, 1, 1]>, <23, 22, 23, 1, 0, 0, 0, [1, 1, 1, 1, 1, 1, 1, 1]>, <24, 23, 24, 1, 0, 0, 0, [1, 1, 1, 1, 1, 1, 1, 1]>, <25, 24, 25, 1, 0, 0, 0, [1, 1, 1, 1, 1, 1, 1, 1]>, <26, 25, 26, 1, 0, 0, 0, [1, 1, 1, 1, 1, 1, 1, 1]>, <27, 26, 27, 1, 0, 0, 0, [1, 1, 1, 1, 1, 1, 1, 1]>, <28, 27, 28, 1, 0, 0, 0, [1, 1, 1, 1, 1, 1, 1, 1]>, <29, 28, 29, 1, 0, 0, 0, [1, 1, 1, 1, 1, 1, 1, 1]>, <30, 29, 30, 1, 0, 0, 0, [1, 1, 1, 1, 1, 1, 1, 1]>, <31, 30, 31, 1, 0, 0, 0, [1, 1, 1, 1, 1, 1, 1, 1]>, <32, 31, 32, 1, 0, 0, 0, [1, 1, 1, 1, 1, 1, 1, 1]>, <33, 32, 33, 1, 0, 0, 0, [1, 1, 1, 1, 1, 1, 1, 1]>, <34, 33, 34, 1, 0, 0, 0, [1, 1, 1, 1, 1, 1, 1, 1]>, <35, 34, 35, 1, 0, 0, 0, [1, 1, 1, 1, 1, 1, 1, 1]>, <36, 0, 19, 19, 1, 1, 0, [0, 1, 1, 0, 0, 0, 0, 0]>, <37, 1, 20, 19, 1, 1, 0, [0, 1, 1, 0, 0, 0, 0, 0]>, <38, 2, 21, 19, 1, 1, 0, [0, 1, 1, 0, 0, 0, 0, 0]>, <39, 3, 22, 19, 1, 1, 0, [0, 1, 1, 0, 0, 0, 0, 0]>, <40, 4, 23, 19, 1, 1, 0, [0, 1, 1, 0, 0, 0, 0, 0]>, <41, 5, 24, 19, 1, 1, 0, [0, 1, 1, 0, 0, 0, 0, 0]>, <42, 6, 25, 19, 1, 1, 0, [0, 1, 1, 0, 0, 0, 0, 0]>, <43, 7, 26, 19, 1, 1, 0, [0, 1, 1, 0, 0, 0, 0, 0]>, <44, 8, 27, 19, 1, 1, 0, [0, 1, 1, 0, 0, 0, 0, 0]>, <45, 9, 28, 19, 1, 1, 0, [0, 1, 1, 0, 0, 0, 0, 0]>, <46, 10, 29, 19, 1, 1, 0, [0, 1, 1, 0, 0, 0, 0, 0]>, <47, 11, 30, 19, 1, 1, 0, [0, 1, 1, 0, 0, 0, 0, 0]>, <48, 12, 31, 19, 1, 1, 0, [0, 1, 1, 0, 0, 0, 0, 0]>, <49, 13, 32, 19, 1, 1, 0, [0, 1, 1, 0, 0, 0, 0, 0]>, <50, 14, 33, 19, 1, 1, 0, [0, 1, 1, 0, 0, 0, 0, 0]>, <51, 15, 34, 19, 1, 1, 0, [0, 1, 1, 0, 0, 0, 0, 0]>, <52, 16, 35, 19, 1, 1, 0, [0, 1, 1, 0, 0, 0, 0, 0]>, <53, 0, 20, 20, 2, 0, 0, [1, 1, 0, 0, 0, 0, 0, 0]>, <54, 1, 21, 20, 2, 0, 0, [1, 1, 0, 0, 0, 0, 0, 0]>, <55, 2, 22, 20, 2, 0, 0, [1, 1, 0, 0, 0, 0, 0, 0]>, <56, 3, 23, 20, 2, 0, 0, [1, 1, 0, 0, 0, 0, 0, 0]>, <57, 4, 24, 20, 2, 0, 0, [1, 1, 0, 0, 0, 0, 0, 0]>, <58, 5, 25, 20, 2, 0, 0, [1, 1, 0, 0, 0, 0, 0, 0]>, <59, 6, 26, 20, 2, 0, 0, [1, 1, 0, 0, 0, 0, 0, 0]>, <60, 7, 27, 20, 2, 0, 0, [1, 1, 0, 0, 0, 0, 0, 0]>, <61, 8, 28, 20, 2, 0, 0, [1, 1, 0, 0, 0, 0, 0, 0]>, <62, 9, 29, 20, 2, 0, 0, [1, 1, 0, 0, 0, 0, 0, 0]>, <63, 10, 30, 20, 2, 0, 0, [1, 1, 0, 0, 0, 0, 0, 0]>, <64, 11, 31, 20, 2, 0, 0, [1, 1, 0, 0, 0, 0, 0, 0]>, <65, 12, 32, 20, 2, 0, 0, [1, 1, 0, 0, 0, 0, 0, 0]>, <66, 13, 33, 20, 2, 0, 0, [1, 1, 0, 0, 0, 0, 0, 0]>, <67, 14, 34, 20, 2, 0, 0, [1, 1, 0, 0, 0, 0, 0, 0]>, <68, 15, 35, 20, 2, 0, 0, [1, 1, 0, 0, 0, 0, 0, 0]>, <69, 0, 20, 20, 3, 0, 0, [0, 0, 1, 1, 0, 0, 0, 0]>, <70, 1, 21, 20, 3, 0, 0, [0, 0, 1, 1, 0, 0, 0, 0]>, <71, 2, 22, 20, 3, 0, 0, [0, 0, 1, 1, 0, 0, 0, 0]>, <72, 3, 23, 20, 3, 0, 0, [0, 0, 1, 1, 0, 0, 0, 0]>, <73, 4, 24, 20, 3, 0, 0, [0, 0, 1, 1, 0, 0, 0, 0]>, <74, 5, 25, 20, 3, 0, 0, [0, 0, 1, 1, 0, 0, 0, 0]>, <75, 6, 26, 20, 3, 0, 0, [0, 0, 1, 1, 0, 0, 0, 0]>, <76, 7, 27, 20, 3, 0, 0, [0, 0, 1, 1, 0, 0, 0, 0]>, <77, 8, 28, 20, 3, 0, 0, [0, 0, 1, 1, 0, 0, 0, 0]>, <78, 9, 29, 20, 3, 0, 0, [0, 0, 1, 1, 0, 0, 0, 0]>, <79, 10, 30, 20, 3, 0, 0, [0, 0, 1, 1, 0, 0, 0, 0]>, <80, 11, 31, 20, 3, 0, 0, [0, 0, 1, 1, 0, 0, 0, 0]>, <81, 12, 32, 20, 3, 0, 0, [0, 0, 1, 1, 0, 0, 0, 0]>, <82, 13, 33, 20, 3, 0, 0, [0, 0, 1, 1, 0, 0, 0, 0]>, <83, 14, 34, 20, 3, 0, 0, [0, 0, 1, 1, 0, 0, 0, 0]>, <84, 15, 35, 20, 3, 0, 0, [0, 0, 1, 1, 0, 0, 0, 0]>, <85, 0, 18, 18, 4, 1, 0, [0, 0, 1, 1, 0, 0, 0, 0]>, <86, 1, 19, 18, 4, 1, 0, [0, 0, 1, 1, 0, 0, 0, 0]>, <87, 2, 20, 18, 4, 1, 0, [0, 0, 1, 1, 0, 0, 0, 0]>, <88, 3, 21, 18, 4, 1, 0, [0, 0, 1, 1, 0, 0, 0, 0]>, <89, 4, 22, 18, 4, 1, 0, [0, 0, 1, 1, 0, 0, 0, 0]>, <90, 5, 23, 18, 4, 1, 0, [0, 0, 1, 1, 0, 0, 0, 0]>, <91, 6, 24, 18, 4, 1, 0, [0, 0, 1, 1, 0, 0, 0, 0]>, <92, 8, 26, 18, 4, 1, 0, [0, 0, 1, 1, 0, 0, 0, 0]>, <93, 9, 27, 18, 4, 1, 0, [0, 0, 1, 1, 0, 0, 0, 0]>, <94, 10, 28, 18, 4, 1, 0, [0, 0, 1, 1, 0, 0, 0, 0]>, <95, 11, 29, 18, 4, 1, 0, [0, 0, 1, 1, 0, 0, 0, 0]>, <96, 12, 30, 18, 4, 1, 0, [0, 0, 1, 1, 0, 0, 0, 0]>, <97, 13, 31, 18, 4, 1, 0, [0, 0, 1, 1, 0, 0, 0, 0]>, <98, 14, 32, 18, 4, 1, 0, [0, 0, 1, 1, 0, 0, 0, 0]>, <99, 15, 33, 18, 4, 1, 0, [0, 0, 1, 1, 0, 0, 0, 0]>, <100, 16, 34, 18, 4, 1, 0, [0, 0, 1, 1, 0, 0, 0, 0]>, <101, 17, 35, 18, 4, 1, 0, [0, 0, 1, 1, 0, 0, 0, 0]>, <102, 0, 19, 19, 5, 0, 1, [1, 1, 0, 0, 0, 0, 0, 0]>, <103, 1, 20, 19, 5, 0, 1, [1, 1, 0, 0, 0, 0, 0, 0]>, <104, 2, 21, 19, 5, 0, 1, [1, 1, 0, 0, 0, 0, 0, 0]>, <105, 3, 22, 19, 5, 0, 1, [1, 1, 0, 0, 0, 0, 0, 0]>, <106, 4, 23, 19, 5, 0, 1, [1, 1, 0, 0, 0, 0, 0, 0]>, <107, 5, 24, 19, 5, 0, 1, [1, 1, 0, 0, 0, 0, 0, 0]>, <108, 6, 25, 19, 5, 0, 1, [1, 1, 0, 0, 0, 0, 0, 0]>, <109, 7, 26, 19, 5, 0, 1, [1, 1, 0, 0, 0, 0, 0, 0]>, <110, 8, 27, 19, 5, 0, 1, [1, 1, 0, 0, 0, 0, 0, 0]>, <111, 9, 28, 19, 5, 0, 1, [1, 1, 0, 0, 0, 0, 0, 0]>, <112, 10, 29, 19, 5, 0, 1, [1, 1, 0, 0, 0, 0, 0, 0]>, <113, 11, 30, 19, 5, 0, 1, [1, 1, 0, 0, 0, 0, 0, 0]>, <114, 12, 31, 19, 5, 0, 1, [1, 1, 0, 0, 0, 0, 0, 0]>, <115, 13, 32, 19, 5, 0, 1, [1, 1, 0, 0, 0, 0, 0, 0]>, <116, 14, 33, 19, 5, 0, 1, [1, 1, 0, 0, 0, 0, 0, 0]>, <117, 15, 34, 19, 5, 0, 1, [1, 1, 0, 0, 0, 0, 0, 0]>, <118, 16, 35, 19, 5, 0, 1, [1, 1, 0, 0, 0, 0, 0, 0]>, <119, 0, 21, 21, 6, 0, 0, [0, 0, 0, 0, 0, 1, 1, 0]>, <120, 1, 22, 21, 6, 0, 0, [0, 0, 0, 0, 0, 1, 1, 0]>, <121, 2, 23, 21, 6, 0, 0, [0, 0, 0, 0, 0, 1, 1, 0]>, <122, 3, 24, 21, 6, 0, 0, [0, 0, 0, 0, 0, 1, 1, 0]>, <123, 4, 25, 21, 6, 0, 0, [0, 0, 0, 0, 0, 1, 1, 0]>, <124, 5, 26, 21, 6, 0, 0, [0, 0, 0, 0, 0, 1, 1, 0]>, <125, 6, 27, 21, 6, 0, 0, [0, 0, 0, 0, 0, 1, 1, 0]>, <126, 7, 28, 21, 6, 0, 0, [0, 0, 0, 0, 0, 1, 1, 0]>, <127, 8, 29, 21, 6, 0, 0, [0, 0, 0, 0, 0, 1, 1, 0]>, <128, 9, 30, 21, 6, 0, 0, [0, 0, 0, 0, 0, 1, 1, 0]>, <129, 10, 31, 21, 6, 0, 0, [0, 0, 0, 0, 0, 1, 1, 0]>, <130, 11, 32, 21, 6, 0, 0, [0, 0, 0, 0, 0, 1, 1, 0]>, <131, 12, 33, 21, 6, 0, 0, [0, 0, 0, 0, 0, 1, 1, 0]>, <132, 13, 34, 21, 6, 0, 0, [0, 0, 0, 0, 0, 1, 1, 0]>, <133, 14, 35, 21, 6, 0, 0, [0, 0, 0, 0, 0, 1, 1, 0]>, <134, 0, 18, 18, 7, 1, 0, [1, 0, 0, 0, 0, 0, 0, 1]>, <135, 1, 19, 18, 7, 1, 0, [1, 0, 0, 0, 0, 0, 0, 1]>, <136, 2, 20, 18, 7, 1, 0, [1, 0, 0, 0, 0, 0, 0, 1]>, <137, 3, 21, 18, 7, 1, 0, [1, 0, 0, 0, 0, 0, 0, 1]>, <138, 4, 22, 18, 7, 1, 0, [1, 0, 0, 0, 0, 0, 0, 1]>, <139, 5, 23, 18, 7, 1, 0, [1, 0, 0, 0, 0, 0, 0, 1]>, <140, 6, 24, 18, 7, 1, 0, [1, 0, 0, 0, 0, 0, 0, 1]>, <141, 8, 26, 18, 7, 1, 0, [1, 0, 0, 0, 0, 0, 0, 1]>, <142, 9, 27, 18, 7, 1, 0, [1, 0, 0, 0, 0, 0, 0, 1]>, <143, 10, 28, 18, 7, 1, 0, [1, 0, 0, 0, 0, 0, 0, 1]>, <144, 11, 29, 18, 7, 1, 0, [1, 0, 0, 0, 0, 0, 0, 1]>, <145, 12, 30, 18, 7, 1, 0, [1, 0, 0, 0, 0, 0, 0, 1]>, <146, 13, 31, 18, 7, 1, 0, [1, 0, 0, 0, 0, 0, 0, 1]>, <147, 14, 32, 18, 7, 1, 0, [1, 0, 0, 0, 0, 0, 0, 1]>, <148, 15, 33, 18, 7, 1, 0, [1, 0, 0, 0, 0, 0, 0, 1]>, <149, 16, 34, 18, 7, 1, 0, [1, 0, 0, 0, 0, 0, 0, 1]>, <150, 17, 35, 18, 7, 1, 0, [1, 0, 0, 0, 0, 0, 0, 1]>, <151, 0, 20, 20, 8, 0, 1, [0, 0, 0, 1, 1, 0, 0, 0]>, <152, 1, 21, 20, 8, 0, 1, [0, 0, 0, 1, 1, 0, 0, 0]>, <153, 2, 22, 20, 8, 0, 1, [0, 0, 0, 1, 1, 0, 0, 0]>, <154, 3, 23, 20, 8, 0, 1, [0, 0, 0, 1, 1, 0, 0, 0]>, <155, 4, 24, 20, 8, 0, 1, [0, 0, 0, 1, 1, 0, 0, 0]>, <156, 5, 25, 20, 8, 0, 1, [0, 0, 0, 1, 1, 0, 0, 0]>, <157, 6, 26, 20, 8, 0, 1, [0, 0, 0, 1, 1, 0, 0, 0]>, <158, 7, 27, 20, 8, 0, 1, [0, 0, 0, 1, 1, 0, 0, 0]>, <159, 8, 28, 20, 8, 0, 1, [0, 0, 0, 1, 1, 0, 0, 0]>, <160, 9, 29, 20, 8, 0, 1, [0, 0, 0, 1, 1, 0, 0, 0]>, <161, 10, 30, 20, 8, 0, 1, [0, 0, 0, 1, 1, 0, 0, 0]>, <162, 11, 31, 20, 8, 0, 1, [0, 0, 0, 1, 1, 0, 0, 0]>, <163, 12, 32, 20, 8, 0, 1, [0, 0, 0, 1, 1, 0, 0, 0]>, <164, 13, 33, 20, 8, 0, 1, [0, 0, 0, 1, 1, 0, 0, 0]>, <165, 14, 34, 20, 8, 0, 1, [0, 0, 0, 1, 1, 0, 0, 0]>, <166, 15, 35, 20, 8, 0, 1, [0, 0, 0, 1, 1, 0, 0, 0]>, <167, 0, 22, 22, 9, 0, 1, [1, 0, 0, 0, 0, 0, 0, 1]>, <168, 1, 23, 22, 9, 0, 1, [1, 0, 0, 0, 0, 0, 0, 1]>, <169, 2, 24, 22, 9, 0, 1, [1, 0, 0, 0, 0, 0, 0, 1]>, <170, 3, 25, 22, 9, 0, 1, [1, 0, 0, 0, 0, 0, 0, 1]>, <171, 4, 26, 22, 9, 0, 1, [1, 0, 0, 0, 0, 0, 0, 1]>, <172, 5, 27, 22, 9, 0, 1, [1, 0, 0, 0, 0, 0, 0, 1]>, <173, 6, 28, 22, 9, 0, 1, [1, 0, 0, 0, 0, 0, 0, 1]>, <174, 7, 29, 22, 9, 0, 1, [1, 0, 0, 0, 0, 0, 0, 1]>, <175, 8, 30, 22, 9, 0, 1, [1, 0, 0, 0, 0, 0, 0, 1]>, <176, 9, 31, 22, 9, 0, 1, [1, 0, 0, 0, 0, 0, 0, 1]>, <177, 10, 32, 22, 9, 0, 1, [1, 0, 0, 0, 0, 0, 0, 1]>, <178, 11, 33, 22, 9, 0, 1, [1, 0, 0, 0, 0, 0, 0, 1]>, <179, 12, 34, 22, 9, 0, 1, [1, 0, 0, 0, 0, 0, 0, 1]>, <180, 13, 35, 22, 9, 0, 1, [1, 0, 0, 0, 0, 0, 0, 1]>, <181, 0, 17, 17, 10, 0, 0, [1, 0, 0, 0, 0, 0, 0, 1]>, <182, 1, 18, 17, 10, 0, 0, [1, 0, 0, 0, 0, 0, 0, 1]>, <183, 2, 19, 17, 10, 0, 0, [1, 0, 0, 0, 0, 0, 0, 1]>, <184, 3, 20, 17, 10, 0, 0, [1, 0, 0, 0, 0, 0, 0, 1]>, <185, 4, 21, 17, 10, 0, 0, [1, 0, 0, 0, 0, 0, 0, 1]>, <186, 5, 22, 17, 10, 0, 0, [1, 0, 0, 0, 0, 0, 0, 1]>, <187, 6, 23, 17, 10, 0, 0, [1, 0, 0, 0, 0, 0, 0, 1]>, <188, 9, 26, 17, 10, 0, 0, [1, 0, 0, 0, 0, 0, 0, 1]>, <189, 10, 27, 17, 10, 0, 0, [1, 0, 0, 0, 0, 0, 0, 1]>, <190, 11, 28, 17, 10, 0, 0, [1, 0, 0, 0, 0, 0, 0, 1]>, <191, 12, 29, 17, 10, 0, 0, [1, 0, 0, 0, 0, 0, 0, 1]>, <192, 13, 30, 17, 10, 0, 0, [1, 0, 0, 0, 0, 0, 0, 1]>, <193, 14, 31, 17, 10, 0, 0, [1, 0, 0, 0, 0, 0, 0, 1]>, <194, 15, 32, 17, 10, 0, 0, [1, 0, 0, 0, 0, 0, 0, 1]>, <195, 16, 33, 17, 10, 0, 0, [1, 0, 0, 0, 0, 0, 0, 1]>, <196, 17, 34, 17, 10, 0, 0, [1, 0, 0, 0, 0, 0, 0, 1]>, <197, 18, 35, 17, 10, 0, 0, [1, 0, 0, 0, 0, 0, 0, 1]>, <198, 0, 22, 22, 11, 0, 1, [0, 0, 1, 1, 0, 0, 0, 0]>, <199, 1, 23, 22, 11, 0, 1, [0, 0, 1, 1, 0, 0, 0, 0]>, <200, 2, 24, 22, 11, 0, 1, [0, 0, 1, 1, 0, 0, 0, 0]>, <201, 3, 25, 22, 11, 0, 1, [0, 0, 1, 1, 0, 0, 0, 0]>, <202, 4, 26, 22, 11, 0, 1, [0, 0, 1, 1, 0, 0, 0, 0]>, <203, 5, 27, 22, 11, 0, 1, [0, 0, 1, 1, 0, 0, 0, 0]>, <204, 6, 28, 22, 11, 0, 1, [0, 0, 1, 1, 0, 0, 0, 0]>, <205, 7, 29, 22, 11, 0, 1, [0, 0, 1, 1, 0, 0, 0, 0]>, <206, 8, 30, 22, 11, 0, 1, [0, 0, 1, 1, 0, 0, 0, 0]>, <207, 9, 31, 22, 11, 0, 1, [0, 0, 1, 1, 0, 0, 0, 0]>, <208, 10, 32, 22, 11, 0, 1, [0, 0, 1, 1, 0, 0, 0, 0]>, <209, 11, 33, 22, 11, 0, 1, [0, 0, 1, 1, 0, 0, 0, 0]>, <210, 12, 34, 22, 11, 0, 1, [0, 0, 1, 1, 0, 0, 0, 0]>, <211, 13, 35, 22, 11, 0, 1, [0, 0, 1, 1, 0, 0, 0, 0]>, <212, 0, 20, 20, 12, 0, 0, [0, 0, 0, 0, 0, 0, 1, 1]>, <213, 1, 21, 20, 12, 0, 0, [0, 0, 0, 0, 0, 0, 1, 1]>, <214, 2, 22, 20, 12, 0, 0, [0, 0, 0, 0, 0, 0, 1, 1]>, <215, 3, 23, 20, 12, 0, 0, [0, 0, 0, 0, 0, 0, 1, 1]>, <216, 4, 24, 20, 12, 0, 0, [0, 0, 0, 0, 0, 0, 1, 1]>, <217, 5, 25, 20, 12, 0, 0, [0, 0, 0, 0, 0, 0, 1, 1]>, <218, 6, 26, 20, 12, 0, 0, [0, 0, 0, 0, 0, 0, 1, 1]>, <219, 7, 27, 20, 12, 0, 0, [0, 0, 0, 0, 0, 0, 1, 1]>, <220, 8, 28, 20, 12, 0, 0, [0, 0, 0, 0, 0, 0, 1, 1]>, <221, 9, 29, 20, 12, 0, 0, [0, 0, 0, 0, 0, 0, 1, 1]>, <222, 10, 30, 20, 12, 0, 0, [0, 0, 0, 0, 0, 0, 1, 1]>, <223, 11, 31, 20, 12, 0, 0, [0, 0, 0, 0, 0, 0, 1, 1]>, <224, 12, 32, 20, 12, 0, 0, [0, 0, 0, 0, 0, 0, 1, 1]>, <225, 13, 33, 20, 12, 0, 0, [0, 0, 0, 0, 0, 0, 1, 1]>, <226, 14, 34, 20, 12, 0, 0, [0, 0, 0, 0, 0, 0, 1, 1]>, <227, 15, 35, 20, 12, 0, 0, [0, 0, 0, 0, 0, 0, 1, 1]>, <228, 0, 20, 20, 13, 1, 0, [0, 0, 1, 1, 0, 0, 0, 0]>, <229, 1, 21, 20, 13, 1, 0, [0, 0, 1, 1, 0, 0, 0, 0]>, <230, 2, 22, 20, 13, 1, 0, [0, 0, 1, 1, 0, 0, 0, 0]>, <231, 3, 23, 20, 13, 1, 0, [0, 0, 1, 1, 0, 0, 0, 0]>, <232, 4, 24, 20, 13, 1, 0, [0, 0, 1, 1, 0, 0, 0, 0]>, <233, 5, 25, 20, 13, 1, 0, [0, 0, 1, 1, 0, 0, 0, 0]>, <234, 6, 26, 20, 13, 1, 0, [0, 0, 1, 1, 0, 0, 0, 0]>, <235, 7, 27, 20, 13, 1, 0, [0, 0, 1, 1, 0, 0, 0, 0]>, <236, 8, 28, 20, 13, 1, 0, [0, 0, 1, 1, 0, 0, 0, 0]>, <237, 9, 29, 20, 13, 1, 0, [0, 0, 1, 1, 0, 0, 0, 0]>, <238, 10, 30, 20, 13, 1, 0, [0, 0, 1, 1, 0, 0, 0, 0]>, <239, 11, 31, 20, 13, 1, 0, [0, 0, 1, 1, 0, 0, 0, 0]>, <240, 12, 32, 20, 13, 1, 0, [0, 0, 1, 1, 0, 0, 0, 0]>, <241, 13, 33, 20, 13, 1, 0, [0, 0, 1, 1, 0, 0, 0, 0]>, <242, 14, 34, 20, 13, 1, 0, [0, 0, 1, 1, 0, 0, 0, 0]>, <243, 15, 35, 20, 13, 1, 0, [0, 0, 1, 1, 0, 0, 0, 0]>, <244, 0, 21, 21, 14, 0, 0, [0, 0, 0, 0, 1, 1, 0, 0]>, <245, 1, 22, 21, 14, 0, 0, [0, 0, 0, 0, 1, 1, 0, 0]>, <246, 2, 23, 21, 14, 0, 0, [0, 0, 0, 0, 1, 1, 0, 0]>, <247, 3, 24, 21, 14, 0, 0, [0, 0, 0, 0, 1, 1, 0, 0]>, <248, 4, 25, 21, 14, 0, 0, [0, 0, 0, 0, 1, 1, 0, 0]>, <249, 5, 26, 21, 14, 0, 0, [0, 0, 0, 0, 1, 1, 0, 0]>, <250, 6, 27, 21, 14, 0, 0, [0, 0, 0, 0, 1, 1, 0, 0]>, <251, 7, 28, 21, 14, 0, 0, [0, 0, 0, 0, 1, 1, 0, 0]>, <252, 8, 29, 21, 14, 0, 0, [0, 0, 0, 0, 1, 1, 0, 0]>, <253, 9, 30, 21, 14, 0, 0, [0, 0, 0, 0, 1, 1, 0, 0]>, <254, 10, 31, 21, 14, 0, 0, [0, 0, 0, 0, 1, 1, 0, 0]>, <255, 11, 32, 21, 14, 0, 0, [0, 0, 0, 0, 1, 1, 0, 0]>, <256, 12, 33, 21, 14, 0, 0, [0, 0, 0, 0, 1, 1, 0, 0]>, <257, 13, 34, 21, 14, 0, 0, [0, 0, 0, 0, 1, 1, 0, 0]>, <258, 14, 35, 21, 14, 0, 0, [0, 0, 0, 0, 1, 1, 0, 0]>, <259, 0, 21, 21, 15, 0, 0, [0, 1, 1, 0, 0, 0, 0, 0]>, <260, 1, 22, 21, 15, 0, 0, [0, 1, 1, 0, 0, 0, 0, 0]>, <261, 2, 23, 21, 15, 0, 0, [0, 1, 1, 0, 0, 0, 0, 0]>, <262, 3, 24, 21, 15, 0, 0, [0, 1, 1, 0, 0, 0, 0, 0]>, <263, 4, 25, 21, 15, 0, 0, [0, 1, 1, 0, 0, 0, 0, 0]>, <264, 5, 26, 21, 15, 0, 0, [0, 1, 1, 0, 0, 0, 0, 0]>, <265, 6, 27, 21, 15, 0, 0, [0, 1, 1, 0, 0, 0, 0, 0]>, <266, 7, 28, 21, 15, 0, 0, [0, 1, 1, 0, 0, 0, 0, 0]>, <267, 8, 29, 21, 15, 0, 0, [0, 1, 1, 0, 0, 0, 0, 0]>, <268, 9, 30, 21, 15, 0, 0, [0, 1, 1, 0, 0, 0, 0, 0]>, <269, 10, 31, 21, 15, 0, 0, [0, 1, 1, 0, 0, 0, 0, 0]>, <270, 11, 32, 21, 15, 0, 0, [0, 1, 1, 0, 0, 0, 0, 0]>, <271, 12, 33, 21, 15, 0, 0, [0, 1, 1, 0, 0, 0, 0, 0]>, <272, 13, 34, 21, 15, 0, 0, [0, 1, 1, 0, 0, 0, 0, 0]>, <273, 14, 35, 21, 15, 0, 0, [0, 1, 1, 0, 0, 0, 0, 0]>, <274, 0, 21, 21, 16, 0, 0, [1, 0, 0, 0, 0, 0, 0, 1]>, <275, 1, 22, 21, 16, 0, 0, [1, 0, 0, 0, 0, 0, 0, 1]>, <276, 2, 23, 21, 16, 0, 0, [1, 0, 0, 0, 0, 0, 0, 1]>, <277, 3, 24, 21, 16, 0, 0, [1, 0, 0, 0, 0, 0, 0, 1]>, <278, 4, 25, 21, 16, 0, 0, [1, 0, 0, 0, 0, 0, 0, 1]>, <279, 5, 26, 21, 16, 0, 0, [1, 0, 0, 0, 0, 0, 0, 1]>, <280, 6, 27, 21, 16, 0, 0, [1, 0, 0, 0, 0, 0, 0, 1]>, <281, 7, 28, 21, 16, 0, 0, [1, 0, 0, 0, 0, 0, 0, 1]>, <282, 8, 29, 21, 16, 0, 0, [1, 0, 0, 0, 0, 0, 0, 1]>, <283, 9, 30, 21, 16, 0, 0, [1, 0, 0, 0, 0, 0, 0, 1]>, <284, 10, 31, 21, 16, 0, 0, [1, 0, 0, 0, 0, 0, 0, 1]>, <285, 11, 32, 21, 16, 0, 0, [1, 0, 0, 0, 0, 0, 0, 1]>, <286, 12, 33, 21, 16, 0, 0, [1, 0, 0, 0, 0, 0, 0, 1]>, <287, 13, 34, 21, 16, 0, 0, [1, 0, 0, 0, 0, 0, 0, 1]>, <288, 14, 35, 21, 16, 0, 0, [1, 0, 0, 0, 0, 0, 0, 1]>, <289, 0, 17, 17, 17, 0, 1, [1, 0, 0, 0, 0, 0, 0, 1]>, <290, 1, 18, 17, 17, 0, 1, [1, 0, 0, 0, 0, 0, 0, 1]>, <291, 2, 19, 17, 17, 0, 1, [1, 0, 0, 0, 0, 0, 0, 1]>, <292, 3, 20, 17, 17, 0, 1, [1, 0, 0, 0, 0, 0, 0, 1]>, <293, 4, 21, 17, 17, 0, 1, [1, 0, 0, 0, 0, 0, 0, 1]>, <294, 5, 22, 17, 17, 0, 1, [1, 0, 0, 0, 0, 0, 0, 1]>, <295, 6, 23, 17, 17, 0, 1, [1, 0, 0, 0, 0, 0, 0, 1]>, <296, 9, 26, 17, 17, 0, 1, [1, 0, 0, 0, 0, 0, 0, 1]>, <297, 10, 27, 17, 17, 0, 1, [1, 0, 0, 0, 0, 0, 0, 1]>, <298, 11, 28, 17, 17, 0, 1, [1, 0, 0, 0, 0, 0, 0, 1]>, <299, 12, 29, 17, 17, 0, 1, [1, 0, 0, 0, 0, 0, 0, 1]>, <300, 13, 30, 17, 17, 0, 1, [1, 0, 0, 0, 0, 0, 0, 1]>, <301, 14, 31, 17, 17, 0, 1, [1, 0, 0, 0, 0, 0, 0, 1]>, <302, 15, 32, 17, 17, 0, 1, [1, 0, 0, 0, 0, 0, 0, 1]>, <303, 16, 33, 17, 17, 0, 1, [1, 0, 0, 0, 0, 0, 0, 1]>, <304, 17, 34, 17, 17, 0, 1, [1, 0, 0, 0, 0, 0, 0, 1]>, <305, 18, 35, 17, 17, 0, 1, [1, 0, 0, 0, 0, 0, 0, 1]>, <306, 0, 19, 19, 18, 0, 1, [0, 0, 1, 1, 0, 0, 0, 0]>, <307, 1, 20, 19, 18, 0, 1, [0, 0, 1, 1, 0, 0, 0, 0]>, <308, 2, 21, 19, 18, 0, 1, [0, 0, 1, 1, 0, 0, 0, 0]>, <309, 3, 22, 19, 18, 0, 1, [0, 0, 1, 1, 0, 0, 0, 0]>, <310, 4, 23, 19, 18, 0, 1, [0, 0, 1, 1, 0, 0, 0, 0]>, <311, 5, 24, 19, 18, 0, 1, [0, 0, 1, 1, 0, 0, 0, 0]>, <312, 6, 25, 19, 18, 0, 1, [0, 0, 1, 1, 0, 0, 0, 0]>, <313, 7, 26, 19, 18, 0, 1, [0, 0, 1, 1, 0, 0, 0, 0]>, <314, 8, 27, 19, 18, 0, 1, [0, 0, 1, 1, 0, 0, 0, 0]>, <315, 9, 28, 19, 18, 0, 1, [0, 0, 1, 1, 0, 0, 0, 0]>, <316, 10, 29, 19, 18, 0, 1, [0, 0, 1, 1, 0, 0, 0, 0]>, <317, 11, 30, 19, 18, 0, 1, [0, 0, 1, 1, 0, 0, 0, 0]>, <318, 12, 31, 19, 18, 0, 1, [0, 0, 1, 1, 0, 0, 0, 0]>, <319, 13, 32, 19, 18, 0, 1, [0, 0, 1, 1, 0, 0, 0, 0]>, <320, 14, 33, 19, 18, 0, 1, [0, 0, 1, 1, 0, 0, 0, 0]>, <321, 15, 34, 19, 18, 0, 1, [0, 0, 1, 1, 0, 0, 0, 0]>, <322, 16, 35, 19, 18, 0, 1, [0, 0, 1, 1, 0, 0, 0, 0]>, <323, 0, 17, 17, 19, 0, 0, [0, 0, 0, 0, 0, 0, 1, 1]>, <324, 1, 18, 17, 19, 0, 0, [0, 0, 0, 0, 0, 0, 1, 1]>, <325, 2, 19, 17, 19, 0, 0, [0, 0, 0, 0, 0, 0, 1, 1]>, <326, 3, 20, 17, 19, 0, 0, [0, 0, 0, 0, 0, 0, 1, 1]>, <327, 4, 21, 17, 19, 0, 0, [0, 0, 0, 0, 0, 0, 1, 1]>, <328, 5, 22, 17, 19, 0, 0, [0, 0, 0, 0, 0, 0, 1, 1]>, <329, 6, 23, 17, 19, 0, 0, [0, 0, 0, 0, 0, 0, 1, 1]>, <330, 9, 26, 17, 19, 0, 0, [0, 0, 0, 0, 0, 0, 1, 1]>, <331, 10, 27, 17, 19, 0, 0, [0, 0, 0, 0, 0, 0, 1, 1]>, <332, 11, 28, 17, 19, 0, 0, [0, 0, 0, 0, 0, 0, 1, 1]>, <333, 12, 29, 17, 19, 0, 0, [0, 0, 0, 0, 0, 0, 1, 1]>, <334, 13, 30, 17, 19, 0, 0, [0, 0, 0, 0, 0, 0, 1, 1]>, <335, 14, 31, 17, 19, 0, 0, [0, 0, 0, 0, 0, 0, 1, 1]>, <336, 15, 32, 17, 19, 0, 0, [0, 0, 0, 0, 0, 0, 1, 1]>, <337, 16, 33, 17, 19, 0, 0, [0, 0, 0, 0, 0, 0, 1, 1]>, <338, 17, 34, 17, 19, 0, 0, [0, 0, 0, 0, 0, 0, 1, 1]>, <339, 18, 35, 17, 19, 0, 0, [0, 0, 0, 0, 0, 0, 1, 1]>, <340, 0, 21, 21, 20, 1, 0, [0, 1, 1, 0, 0, 0, 0, 0]>, <341, 1, 22, 21, 20, 1, 0, [0, 1, 1, 0, 0, 0, 0, 0]>, <342, 2, 23, 21, 20, 1, 0, [0, 1, 1, 0, 0, 0, 0, 0]>, <343, 3, 24, 21, 20, 1, 0, [0, 1, 1, 0, 0, 0, 0, 0]>, <344, 4, 25, 21, 20, 1, 0, [0, 1, 1, 0, 0, 0, 0, 0]>, <345, 5, 26, 21, 20, 1, 0, [0, 1, 1, 0, 0, 0, 0, 0]>, <346, 6, 27, 21, 20, 1, 0, [0, 1, 1, 0, 0, 0, 0, 0]>, <347, 7, 28, 21, 20, 1, 0, [0, 1, 1, 0, 0, 0, 0, 0]>, <348, 8, 29, 21, 20, 1, 0, [0, 1, 1, 0, 0, 0, 0, 0]>, <349, 9, 30, 21, 20, 1, 0, [0, 1, 1, 0, 0, 0, 0, 0]>, <350, 10, 31, 21, 20, 1, 0, [0, 1, 1, 0, 0, 0, 0, 0]>, <351, 11, 32, 21, 20, 1, 0, [0, 1, 1, 0, 0, 0, 0, 0]>, <352, 12, 33, 21, 20, 1, 0, [0, 1, 1, 0, 0, 0, 0, 0]>, <353, 13, 34, 21, 20, 1, 0, [0, 1, 1, 0, 0, 0, 0, 0]>, <354, 14, 35, 21, 20, 1, 0, [0, 1, 1, 0, 0, 0, 0, 0]>, <355, 0, 22, 22, 21, 0, 1, [0, 0, 0, 0, 0, 0, 1, 1]>, <356, 1, 23, 22, 21, 0, 1, [0, 0, 0, 0, 0, 0, 1, 1]>, <357, 2, 24, 22, 21, 0, 1, [0, 0, 0, 0, 0, 0, 1, 1]>, <358, 3, 25, 22, 21, 0, 1, [0, 0, 0, 0, 0, 0, 1, 1]>, <359, 4, 26, 22, 21, 0, 1, [0, 0, 0, 0, 0, 0, 1, 1]>, <360, 5, 27, 22, 21, 0, 1, [0, 0, 0, 0, 0, 0, 1, 1]>, <361, 6, 28, 22, 21, 0, 1, [0, 0, 0, 0, 0, 0, 1, 1]>, <362, 7, 29, 22, 21, 0, 1, [0, 0, 0, 0, 0, 0, 1, 1]>, <363, 8, 30, 22, 21, 0, 1, [0, 0, 0, 0, 0, 0, 1, 1]>, <364, 9, 31, 22, 21, 0, 1, [0, 0, 0, 0, 0, 0, 1, 1]>, <365, 10, 32, 22, 21, 0, 1, [0, 0, 0, 0, 0, 0, 1, 1]>, <366, 11, 33, 22, 21, 0, 1, [0, 0, 0, 0, 0, 0, 1, 1]>, <367, 12, 34, 22, 21, 0, 1, [0, 0, 0, 0, 0, 0, 1, 1]>, <368, 13, 35, 22, 21, 0, 1, [0, 0, 0, 0, 0, 0, 1, 1]>};
